language Essence 1.3

letting blksize_delta be
        function(1 --> 9, 2 --> 9, 3 --> 9, 4 --> 10, 5 --> 9, 6 --> 10, 7 --> 9, 8 --> 9, 9 --> 9, 10 --> 10, 11 --> 9,
                 12 --> 9, 13 --> 9, 14 --> 9, 15 --> 9, 16 --> 9, 17 --> 9, 18 --> 9, 19 --> 9, 20 --> 9, 21 --> 9,
                 22 --> 9, 23 --> 9, 24 --> 9, 25 --> 9, 26 --> 9, 27 --> 9, 28 --> 9, 29 --> 10, 30 --> 9, 31 --> 9,
                 32 --> 9, 33 --> 9, 34 --> 9, 35 --> 9, 36 --> 9)
letting maxcars be
        function(1 --> 10, 2 --> 8, 3 --> 8, 4 --> 8, 5 --> 8, 6 --> 10, 7 --> 8, 8 --> 8, 9 --> 9, 10 --> 8, 11 --> 8,
                 12 --> 8, 13 --> 10, 14 --> 8, 15 --> 8, 16 --> 8, 17 --> 9, 18 --> 8, 19 --> 8, 20 --> 8, 21 --> 8,
                 22 --> 8, 23 --> 8, 24 --> 8, 25 --> 8, 26 --> 8, 27 --> 8, 28 --> 10, 29 --> 8, 30 --> 8, 31 --> 9,
                 32 --> 8, 33 --> 8, 34 --> 10, 35 --> 8, 36 --> 8)
letting n_cars be 214
letting n_classes be 22
letting n_options be 36
letting quantity be
        function(1 --> 9, 2 --> 9, 3 --> 14, 4 --> 9, 5 --> 20, 6 --> 9, 7 --> 9, 8 --> 9, 9 --> 9, 10 --> 9, 11 --> 9,
                 12 --> 9, 13 --> 9, 14 --> 9, 15 --> 9, 16 --> 9, 17 --> 9, 18 --> 9, 19 --> 9, 20 --> 9, 21 --> 9,
                 22 --> 9)
letting usage be
        relation((1, 6), (1, 13), (1, 14), (1, 17), (1, 19), (2, 17), (2, 35), (3, 5), (3, 6), (3, 12), (3, 20),
                 (3, 21), (3, 31), (4, 15), (4, 16), (4, 21), (4, 35), (5, 12), (5, 26), (6, 6), (6, 8), (6, 27),
                 (6, 31), (7, 17), (7, 22), (7, 23), (7, 34), (8, 21), (9, 9), (9, 13), (9, 15), (10, 5), (10, 7),
                 (10, 19), (10, 25), (10, 31), (11, 9), (11, 14), (11, 35), (12, 3), (12, 6), (12, 9), (12, 13),
                 (12, 16), (12, 25), (12, 28), (13, 28), (14, 23), (14, 27), (15, 24), (15, 35), (16, 3), (16, 17),
                 (16, 32), (16, 35), (16, 36), (17, 3), (17, 6), (17, 19), (17, 20), (17, 24), (17, 26), (18, 3),
                 (18, 20), (19, 1), (19, 2), (19, 3), (19, 17), (19, 18), (20, 4), (21, 14), (21, 22), (21, 23),
                 (22, 7), (22, 8), (22, 10), (22, 11), (22, 14), (22, 19), (22, 29), (22, 30), (22, 33))
$ Visualisation for usage
$  1  6
$  1 13
$  1 14
$  1 17
$  1 19
$  2 17
$  2 35
$  3  5
$  3  6
$  3 12
$  3 20
$  3 21
$  3 31
$  4 15
$  4 16
$  4 21
$  4 35
$  5 12
$  5 26
$  6  6
$  6  8
$  6 27
$  6 31
$  7 17
$  7 22
$  7 23
$  7 34
$  8 21
$  9  9
$  9 13
$  9 15
$ 10  5
$ 10  7
$ 10 19
$ 10 25
$ 10 31
$ 11  9
$ 11 14
$ 11 35
$ 12  3
$ 12  6
$ 12  9
$ 12 13
$ 12 16
$ 12 25
$ 12 28
$ 13 28
$ 14 23
$ 14 27
$ 15 24
$ 15 35
$ 16  3
$ 16 17
$ 16 32
$ 16 35
$ 16 36
$ 17  3
$ 17  6
$ 17 19
$ 17 20
$ 17 24
$ 17 26
$ 18  3
$ 18 20
$ 19  1
$ 19  2
$ 19  3
$ 19 17
$ 19 18
$ 20  4
$ 21 14
$ 21 22
$ 21 23
$ 22  7
$ 22  8
$ 22 10
$ 22 11
$ 22 14
$ 22 19
$ 22 29
$ 22 30
$ 22 33

